c read Graph
c width = 208
c time = 812 ms
c width = 18
c time = 1114 ms
c width = 17
c time = 1246 ms
c width = 16
c time = 1855 ms
c width = 15
c time = 3123 ms
c width = 15
c time = 3954 ms
s td 190 16 221
b 1 1 2 18
b 2 2 3 18 19
b 3 15 16 33 34
b 4 3 18 19 35
b 5 15 33 34 51
b 6 171 188 189 206
b 7 187 203 204 220
b 8 171 189 206 207
b 9 187 203 219 220
b 10 3 4 5 21
b 11 3 5 20 21 36 52
b 12 5 20 21 36 38 52 54
b 13 5 21 36 38 52 54 70
b 14 5 21 38 52 54 70 86
b 15 5 21 23 38 39 54 70 86
b 16 5 23 38 39 54 56 70 72 86
b 17 38 54 55 56 72
b 18 5 23 39 54 56 70 72 86 88
b 19 54 70 71 72 88
b 20 5 23 39 56 70 72 86 88 104
b 21 70 86 87 88 104
b 22 5 23 39 41 56 57 72 86 88 104
b 23 5 23 41 56 57 72 75 86 88 92 104 106 108 124
b 24 56 57 72 75 88 90 92 106 108 124
b 25 56 57 72 74 75 90 92 108
b 26 74 90 91 92 108
b 27 56 72 73 74 90
b 28 90 106 107 108 124
b 29 72 88 89 90 106
b 30 5 23 41 57 59 75 86 88 92 104 106 108 124
b 31 5 23 41 59 75 86 88 92 104 106 108 122 124
b 32 5 23 41 59 75 86 92 104 106 108 122 124 140
b 33 5 23 41 59 75 86 92 104 108 122 124 140 158 176 192 210
b 34 5 23 41 59 75 92 108 124 140 142 158 176 192 210
b 35 5 23 41 59 75 92 108 124 142 158 160 176 192 210
b 36 5 23 41 59 75 92 108 124 142 160 176 178 192 196 210 214
b 37 160 176 178 192 194 196 210 214
b 38 176 192 193 194 210
b 39 178 194 196 210 212 214
b 40 196 212 213 214
b 41 194 210 211 212
b 42 178 194 195 196 212
b 43 160 176 177 178 194
b 44 5 23 41 59 75 92 108 110 124 128 142 144 160 178 196 214
b 45 92 108 110 124 126 128 142 144 160
b 46 110 126 127 128 144
b 47 92 108 109 110 126
b 48 126 142 143 144 160
b 49 108 124 125 126 142
b 50 5 23 41 59 75 92 93 110 128 144 160 178 196 214
b 51 5 23 41 59 75 77 93 110 128 144 160 178 196 214
b 52 5 9 23 27 41 43 59 77 93 110 128 144 160 178 196 214
b 53 9 27 43 59 61 77 93 110 128 144 160 178 196 214
b 54 9 27 43 61 77 79 93 96 110 112 128 144 160 178 196 214
b 55 9 27 43 61 79 96 112 128 144 146 160 164 178 180 196 214
b 56 9 27 43 61 79 96 112 128 130 146 164 180 196 214
b 57 112 128 129 130 146
b 58 9 27 43 61 79 96 112 114 130 146 164 180 196 214
b 59 96 112 113 114 130
b 60 9 27 43 45 61 79 96 114 130 146 164 180 196 214
b 61 27 43 44 45 61
b 62 9 27 45 61 63 79 96 114 130 146 164 180 196 214
b 63 9 27 45 63 79 96 114 130 146 148 164 180 196 214
b 64 130 146 147 148 164
b 65 45 61 62 63 79
b 66 128 144 146 160 162 164 178 180 196
b 67 144 160 161 162 178
b 68 128 144 145 146 162
b 69 146 162 163 164 180
b 70 162 178 179 180 196
b 71 61 77 79 93 95 96 110 112 128
b 72 77 93 95 110 111 112 128
b 73 77 93 94 95 111
b 74 61 77 78 79 95
b 75 43 59 60 61 77
b 76 5 9 23 25 27 41 43 59
b 77 25 41 42 43 59
b 78 9 25 26 27 43
b 79 5 7 9 23 25 41
b 80 5 6 7 23
b 81 7 8 9 25
b 82 7 23 24 25 41
b 83 59 75 76 77 93
b 84 142 158 159 160 176
b 85 124 140 141 142 158
b 86 86 104 122 138 140 154 158 176 192 210
b 87 86 104 120 122 138 154
b 88 104 120 121 122 138
b 89 86 103 104 120
b 90 120 137 138 154
b 91 122 138 140 154 158 174 176 192 210
b 92 122 138 140 154 156 158 174 192 210
b 93 140 156 157 158 174
b 94 122 138 139 140 156
b 95 138 154 156 174 192 208 210
b 96 192 208 209 210
b 97 138 154 156 174 190 192 208
b 98 174 190 191 192 208
b 99 138 154 156 172 174 190 208
b 100 154 172 190 207 208
b 101 154 171 172 190 207
b 102 171 172 189 190 207
b 103 138 154 155 156 172
b 104 156 172 173 174 190
b 105 158 174 175 176 192
b 106 106 122 123 124 140
b 107 88 104 105 106 122
b 108 41 57 58 59 75
b 109 23 39 40 41 57
b 110 5 21 22 23 39
b 111 52 69 70 86
b 112 36 52 53 54 70
b 113 20 36 37 38 54
b 114 3 20 35 36 52
b 115 3 19 20 35 36
b 116 180 196 197 198 214
b 117 100 116 117 118 134
b 118 82 98 99 100 116
b 119 98 114 115 116 132
b 120 114 130 131 132 148
b 121 132 148 149 150 166
b 122 148 164 165 166 182
b 123 164 180 181 182 198
b 124 9 27 45 63 79 96 114 130 148 164 180 196 198 214
b 125 9 27 45 63 79 96 114 130 148 164 180 182 198 214
b 126 9 27 45 63 79 96 114 130 148 164 166 182 198 214
b 127 9 27 45 63 79 96 114 130 132 148 166 182 198 214
b 128 9 27 45 63 79 96 114 132 148 150 166 182 198 214
b 129 63 64 79 82 96 98 100 114 116 132
b 130 102 118 134 150 152 166 170 182 198 214
b 131 9 27 45 63 64 79 82 96 100 102 114 116 118 132
b 132 9 27 45 63 79 96 100 102 114 116 118 132 134
b 133 9 27 45 63 79 96 102 114 116 118 132 134 150
b 134 9 27 45 63 79 96 102 114 118 132 134 150 166 182 198 214
b 135 102 114 118 132 134 150 166 182 198 214
b 136 9 13 27 29 45 63 64 82 100 102 118
b 137 13 29 45 47 63 64 82 100 102 118
b 138 29 45 46 47 63
b 139 13 29 47 64 82 84 100 102 118
b 140 84 100 101 102 118
b 141 13 29 47 64 66 82 84 100 102
b 142 13 29 47 48 64 66 82 84 102
b 143 48 64 65 66 82
b 144 13 29 31 47 48 66 84 102
b 145 13 29 30 31 47
b 146 13 31 48 66 68 84 102
b 147 13 31 48 50 66 68 84
b 148 50 66 67 68 84
b 149 13 31 32 48 50 66 68
b 150 13 15 31 32 50 68
b 151 13 14 15 31
b 152 15 32 50 51 68
b 153 15 32 33 50 51
b 154 32 48 49 50 66
b 155 68 84 85 102
b 156 66 82 83 84 100
b 157 9 11 13 27 29 45
b 158 9 10 11 27
b 159 11 12 13 29
b 160 11 27 28 29 45
b 161 116 132 133 134 150
b 162 134 150 152 166 170 182 198 214 216
b 163 198 214 215 216
b 164 134 150 152 166 170 182 198 200 216
b 165 134 150 152 166 170 182 184 200 216
b 166 166 182 183 184 200
b 167 134 150 152 166 168 170 184 200 216
b 168 150 166 167 168 184
b 169 134 150 151 152 168
b 170 152 168 170 184 200 216 218
b 171 152 168 170 184 200 202 218
b 172 152 168 170 184 186 202 218
b 173 152 168 169 170 186
b 174 168 184 185 186 202
b 175 170 186 202 218 219
b 176 170 186 187 202 219
b 177 186 187 202 203 219
b 178 184 200 201 202 218
b 179 200 216 217 218
b 180 182 198 199 200 216
b 181 102 118 134 136 152 170
b 182 102 118 119 136
b 183 136 152 153 170
b 184 118 134 135 136 152
b 185 63 64 79 80 82 96 98 114
b 186 64 80 81 82 98
b 187 80 96 97 98 114
b 188 204 220 221
b 189 188 205 206
b 190 16 17 34
1 2
2 4
3 190
3 5
4 115
5 153
6 189
6 8
7 188
7 9
8 102
9 177
10 11
11 114
11 12
12 113
12 13
13 112
13 14
14 111
14 15
15 110
15 16
16 18
16 17
18 20
18 19
20 22
20 21
22 109
22 23
23 30
23 24
24 28
24 29
24 25
25 26
25 27
30 108
30 31
31 107
31 32
32 106
32 33
33 86
33 34
34 85
34 35
35 84
35 36
36 44
36 37
37 38
37 39
37 43
39 40
39 41
39 42
44 50
44 45
45 47
45 48
45 49
45 46
50 51
51 83
51 52
52 76
52 53
53 75
53 54
54 71
54 55
55 56
55 66
56 58
56 57
58 60
58 59
60 62
60 61
62 65
62 63
63 124
63 64
66 68
66 69
66 70
66 67
71 74
71 72
72 73
76 79
76 77
76 78
79 82
79 81
79 80
86 91
86 87
87 90
87 89
87 88
91 105
91 92
92 94
92 95
92 93
95 96
95 97
97 98
97 99
99 100
99 103
99 104
100 101
101 102
114 115
116 124
117 132
118 129
119 129
120 127
121 128
122 126
123 125
124 125
125 126
126 127
127 128
128 134
129 185
129 131
130 181
130 162
130 135
131 136
131 132
132 133
133 161
133 134
134 135
136 137
136 157
137 139
137 138
139 140
139 141
141 156
141 142
142 143
142 144
144 145
144 146
146 155
146 147
147 148
147 149
149 154
149 150
150 151
150 152
152 153
157 159
157 160
157 158
162 163
162 164
164 180
164 165
165 166
165 167
167 169
167 168
167 170
170 179
170 171
171 178
171 172
172 175
172 173
172 174
175 176
176 177
181 182
181 183
181 184
185 186
185 187
